$G8	
T$b-.E
$l
$yQ[
$FV
$Z
c^$x
$q_Wp-@p
$yfy8
e'S~E$o-
$g^T
>$m-74z
z.=%$j
$_
$Z-Hfx
d$A
k$b3>;
`$dXA
$w@
$OL
$w5,8}
$p
$w_-
$c[(
$e
$K-8-
$UR
$Sf
o$S:
$ygh9=!M7
$i
$iA
$zn
$r|k
O\"1$h-_1
$no
$h-
$a(
$w-
X$Gm3z
S!,=a$DFCf
E$j.!
'$_
Y$C
*$P)
a$q-Q1#
_$_.
0]9$V
3$x{5
$_?]J
$D=D,
i$A\y
$l
$zw
!$_SN1
b?$_-AUh
$H
ag$Ja5s
jZJ-F$_lc
)$FZ:.
$XwJ
$G`t
$I
$x
1;$E.-mpo
$CdU^
UYO$TD
$E38Z
$s
+\Ipxna$s.
u$y-C
$z
I$L?
\a$W
n$y
$I2
$f8.8v.5
|$_0
$rEm
$n
,$M
q$XW
$XIR?9
6$B[G_
U$t
$f(S
$V-v
$k
$FFCB
$Zy
$L
$r9Z
F$m
s$k
-$f-D:Sak
$f6
P9see$Rp
3$_
<^$hZ:
}$iC
$o-
$a{0
$r9A
$fo
$obz:
c>$yA
S]$Np:_o
B$x
{Uie$JJ}GW
A-$d
f!$bQ3
t$z>
wYH$z.2EAT6
$tt6
\"$k1al
$g-6	
S$E
$B.3._
$aq
^$X
L^ib$gX_
$bMIt
$Z9
$zaW.
v$cFf
iv$V
$I
?Vo1>$L(P
$dh-3bw
$z.@>\a5
$Lw
$bC=09|
|$k
$x]
$f
$Oy.r.
$jd
~*$_\"
$d
$B
$x3b
T9G$f8CG~
$B4
\a$JQHJ
g`{>wz$K
$z]\e
$QF:
$y
$_.ol
u@wc$O.

$Hl
\s$x
$yVo8
$f
K@$KHSJ~
c7$A
$x
,iR4$RV
y$_
$F.i
Y$a
$E5
$fMN.

b$R_
$E7f
$w
$Za
$F_3B
vn$Q8
J$f.
$rAE
$ZF
#$t
$N
$yf
$g
$S18:
u$o:
$d-:
$Y27-

$X-r#
VZ^$jh
}$I
	|\"[t$N-8-
$sdPx
$xzzN4g__IA{
$dH
?$aCALnV
$t7
$MW#
LJ$C
$bqP
$y.-
$Z:v3_
($xvs
k,$_
Q1]W$ow'f
$g
$P._
q$s7
l$fBB0.sp
$_.8.z
$t
=$z2W
$__-
1$m
{B$y-
$lC>
$gP:l
$G
j$B8
$q
$T:--<
$F
1$sIQ
$u
$x8G:^.
7x$F6{
$K
9$_
$a.:
$U	\ai
$mij
$R2
$C7
$SL
$M-..2Z@
M`h7-`]$wT
2b$E
$_,
$JY
$hz
$I:
$jSb
5$Slh
$wS3,d
F$Z_j5
$z
e'$Y\0
$j
p$v
$efK
|:$N
$L
s $K
$A
\a$F%
$K
$_ 
$c.173
$k73
;$I:
$a
$T.--
*E$GHx
$cU
e%$E8e
$l
R$m98
$ppBS7
$H
AI$x
Yr$U
S$NW.5.
\a$X6
$z
Cs'qm$Ua
$moS1
$v-:
|$a
e$lLk#
$_\0
6$b
$lU
$L3.
$Jr
$Q
$V9
$ox
$ME\0*
]$_o?`U
$Lt
$O
$Y:
[$x
E=$p
$wc
G!$zs
$f*&o
$uf.82|
8$j
~b$Aj~
*$b-
$R
u$A2AU
$U.
e$_U
$N7
u47|_$FTQx
uj$E
$zc
$AWEjo
Hu$N1
$a&
$kH
$S
O$Q.V_71i
$A 	\a
$E:h^D
$I1
&$Qz:
$t94iwc
$M8c
)$OXlv,t
$db_MZ@61R1$

1$A
'$V06
$Ab\0|\
$Ot
K$nM}
*sT$qQ
$Qj{L
t$Wa
$c
$q.-n
$sT`
$j.
&$w3.
 $n	
$os
S$p-
.$F-
$_V3
$_.vp7
t$Dg;
nMw)$M
U`$ir
$X]
$tz7
i$_
$ZkxK:\Hn
60$TuWC
% $A8-bu
$F.
F`$F
$T--Y
k$BtdO
$QX
upKY$Q-4
6$s--~L+
5$a
F$Y
$l.-B:w
$e_o
$x
<OJ$B
$_AQ%
#$Ht\
$y9.f#w
$EaC
$W5M;;
$o
b$T
$t-
k$I
X!2$qQ
;e$J.*
$o2H
$B=&
$Lx
$V$
$r-3{-
?$_a-6
z[$_e-_r
$y-.Sn
/afe$o|
*l<$aN`
\e$S.ao
$dSAY&\a`V
$_#
$o
$AD
$N-t4-aT
$K
